(set-info :origin "SVCOMP13 benchmarks generated by Arie Gurfinkel")
(set-info :status unsat)
(set-logic HORN)
(declare-fun cp-rel-bb2.i.i21.i.i () Bool)
(declare-fun cp-rel-entry () Bool)
(declare-fun cp-rel-bb1.i.i (Real Real Real Real) Bool)
(assert |cp-rel-entry|)
(assert (forall ((?A Real) (?B Real) (?C Real) (?D Real) (?E Bool) )(let (($x335175 (and |cp-rel-entry| (<= ?D 1.0) (>= ?C 0.0) (<= ?C 0.0) (>= ?B 0.0) (<= ?B 0.0) (>= ?A 1.0) (<= ?A 1.0) (= ?E true) (>= ?D 1.0))))
(=> $x335175 (|cp-rel-bb1.i.i| ?A ?B ?C ?D))))
)
(assert (forall ((?A Real) (?B Real) (?C Real) (?D Real) (?E Real) (?F Real) (?G Real) (?H Real) (?I Bool) (?J Bool) (?K Bool) (?L Bool) (?M Bool) (?N Bool) (?O Real) (?P Real) (?Q Bool) (?R Bool) (?S Bool) (?T Bool) (?U Bool) (?V Bool) (?W Real) (?X Real) (?Y Bool) (?Z Bool) (?A1 Bool) (?B1 Bool) (?C1 Bool) (?D1 Bool) (?E1 Bool) (?F1 Real) (?G1 Bool) (?H1 Bool) (?I1 Bool) (?J1 Bool) (?K1 Bool) (?L1 Bool) (?M1 Real) (?N1 Real) (?O1 Real) (?P1 Real) (?Q1 Bool) (?R1 Bool) (?S1 Bool) (?T1 Bool) (?U1 Bool) (?V1 Bool) (?W1 Bool) (?X1 Real) (?Y1 Real) (?Z1 Bool) (?A2 Bool) (?B2 Real) (?C2 Bool) (?D2 Real) (?E2 Real) (?F2 Bool) (?G2 Real) (?H2 Real) (?I2 Bool) (?J2 Real) (?K2 Bool) (?L2 Bool) (?M2 Bool) (?N2 Bool) (?O2 Bool) (?P2 Bool) (?Q2 Bool) (?R2 Bool) (?S2 Bool) )(let (($x754941 (|cp-rel-bb1.i.i| ?E ?F ?G ?H)))
(let (($x250031 (= ?A2 (and ?S2 ?R2))))
(let (($x701088 (or (not ?I) (and ?J ?K (not ?L)))))
(let (($x621873 (or (not ?I) ?K)))
(let (($x72829 (not ?M)))
(let (($x272586 (or $x72829 (and ?I ?N (<= ?O ?P) (>= ?O ?P)) (and ?J ?Q ?L (<= ?O ?D) (>= ?O ?D)))))
(let (($x256508 (or $x72829 (and ?N (not ?Q)) (and ?Q (not ?N)))))
(let (($x128610 (or (not ?R) (and ?M ?S (not ?T)))))
(let (($x446483 (or (not ?R) ?S)))
(let (($x233302 (not ?U)))
(let (($x199645 (or $x233302 (and ?R ?V (<= ?W ?X) (>= ?W ?X)) (and ?M ?Y ?T (<= ?W ?C) (>= ?W ?C)))))
(let (($x363903 (or $x233302 (and ?V (not ?Y)) (and ?Y (not ?V)))))
(let (($x363422 (or (not ?Z) (and ?U ?A1 ?B1))))
(let (($x404382 (or (not ?Z) ?A1)))
(let (($x319777 (not ?C1)))
(let (($x538275 (or $x319777 (and ?Z ?D1 ?E1 (<= ?F1 ?A) (>= ?F1 ?A)) (and ?U ?G1 (not ?B1) (<= ?F1 1.0) (>= ?F1 1.0)))))
(let (($x850129 (or $x319777 (and ?D1 (not ?G1)) (and ?G1 (not ?D1)))))
(let (($x388257 (or (not ?H1) (and ?C1 ?I1 (not ?J1)))))
(let (($x373748 (or (not ?H1) ?I1)))
(let (($x26329 (>= ?O1 ?O)))
(let (($x476757 (<= ?O1 ?O)))
(let (($x488890 (and ?Z ?R1 (not ?E1) (<= ?M1 0.0) (>= ?M1 0.0) (<= ?N1 0.0) (>= ?N1 0.0) $x476757 $x26329)))
(let (($x865258 (>= ?N1 ?F1)))
(let (($x690168 (<= ?N1 ?F1)))
(let (($x549643 (and ?C1 ?Q1 ?J1 (<= ?M1 ?B) (>= ?M1 ?B) $x690168 $x865258 $x476757 $x26329)))
(let (($x308217 (and ?H1 ?L1 (<= ?M1 ?B) (>= ?M1 ?B) $x690168 $x865258 (<= ?O1 ?P1) (>= ?O1 ?P1))))
(let (($x846438 (not ?K1)))
(let (($x192321 (or $x846438 (and ?L1 (not ?Q1) (not ?R1)) (and ?Q1 (not ?L1) (not ?R1)) (and ?R1 (not ?L1) (not ?Q1)))))
(let (($x473361 (or (not ?S1) (and ?K1 ?T1 ?U1))))
(let (($x310412 (or (not ?S1) ?T1)))
(let (($x281398 (or (not ?V1) (and ?S1 ?W1 (<= ?X1 ?Y1) (>= ?X1 ?Y1)) (and ?K1 ?Z1 (not ?U1) (<= ?X1 ?M1) (>= ?X1 ?M1)))))
(let (($x580267 (or (not ?V1) (and ?W1 (not ?Z1)) (and ?Z1 (not ?W1)))))
(let (($x521479 (= ?V1 true)))
(let (($x892704 (= ?L (= ?B2 0.0))))
(let (($x232640 (= ?D2 (ite ?C2 1.0 0.0))))
(let (($x202281 (= ?T (= ?E2 0.0))))
(let (($x359926 (= ?X (ite ?F2 1.0 0.0))))
(let (($x126099 (= ?B1 (= ?G2 0.0))))
(let (($x919237 (= ?E1 (= ?H2 0.0))))
(let (($x201585 (= ?I2 (not (<= ?O 0.0)))))
(let (($x815146 (= ?J2 (+ (~ 1.0) ?O))))
(let (($x866521 (= ?P1 (ite ?I2 ?J2 ?O))))
(let (($x300331 (= ?K2 (not (= ?N1 0.0)))))
(let (($x368647 (= ?L2 (= ?M1 0.0))))
(let (($x545028 (= ?M2 (not (<= ?O1 1.0)))))
(let (($x212249 (= ?N2 (and ?K2 ?L2))))
(let (($x89463 (= ?U1 (and ?N2 ?M2))))
(let (($x568670 (= ?O2 (= ?W 0.0))))
(let (($x156652 (= ?Y1 (ite ?O2 1.0 ?M1))))
(let (($x625950 (= ?P2 (= ?W 0.0))))
(let (($x166180 (= ?Q2 (= ?O1 2.0))))
(let (($x21731 (= ?R2 (= ?X1 0.0))))
(let (($x12842 (= ?S2 (and ?Q2 ?P2))))
(let (($x258889 (and (|cp-rel-bb1.i.i| ?A ?B ?C ?D) $x12842 $x21731 $x166180 $x625950 $x156652 $x568670 $x89463 $x212249 $x545028 $x368647 $x300331 $x866521 $x815146 $x201585 (= ?J1 (= ?B 0.0)) $x919237 $x126099 $x359926 (= ?F2 (= ?C 0.0)) $x202281 (= ?P (+ ?D2 ?D)) $x232640 (= ?C2 (not (<= 2.0 ?D))) $x892704 (>= ?H ?O1) (<= ?H ?O1) (>= ?G ?W) (<= ?G ?W) (>= ?F ?X1) (<= ?F ?X1) (>= ?E ?N1) (<= ?E ?N1) (not (= ?A2 true)) $x521479 $x580267 $x281398 $x310412 $x473361 $x192321 (or $x846438 $x308217 $x549643 $x488890) $x373748 $x388257 $x850129 $x538275 $x404382 $x363422 $x363903 $x199645 $x446483 $x128610 $x256508 $x272586 $x621873 $x701088 $x250031)))
(=> $x258889 $x754941))))))))))))))))))))))))))))))))))))))))))))))))))))))))
)
(assert (forall ((?A Real) (?B Real) (?C Real) (?D Real) (?E Bool) (?F Bool) (?G Bool) (?H Bool) (?I Bool) (?J Bool) (?K Real) (?L Real) (?M Bool) (?N Bool) (?O Bool) (?P Bool) (?Q Bool) (?R Bool) (?S Real) (?T Real) (?U Bool) (?V Bool) (?W Bool) (?X Bool) (?Y Bool) (?Z Bool) (?A1 Bool) (?B1 Real) (?C1 Bool) (?D1 Bool) (?E1 Bool) (?F1 Bool) (?G1 Bool) (?H1 Bool) (?I1 Real) (?J1 Real) (?K1 Real) (?L1 Real) (?M1 Bool) (?N1 Bool) (?O1 Bool) (?P1 Bool) (?Q1 Bool) (?R1 Bool) (?S1 Bool) (?T1 Real) (?U1 Real) (?V1 Bool) (?W1 Bool) (?X1 Real) (?Y1 Bool) (?Z1 Real) (?A2 Real) (?B2 Bool) (?C2 Real) (?D2 Real) (?E2 Bool) (?F2 Real) (?G2 Bool) (?H2 Bool) (?I2 Bool) (?J2 Bool) (?K2 Bool) (?L2 Bool) (?M2 Bool) (?N2 Bool) (?O2 Bool) )(let (($x250031 (= ?W1 (and ?O2 ?N2))))
(let (($x701088 (or (not ?E) (and ?F ?G (not ?H)))))
(let (($x621873 (or (not ?E) ?G)))
(let (($x72829 (not ?I)))
(let (($x254564 (or $x72829 (and ?E ?J (<= ?K ?L) (>= ?K ?L)) (and ?F ?M ?H (<= ?K ?D) (>= ?K ?D)))))
(let (($x256508 (or $x72829 (and ?J (not ?M)) (and ?M (not ?J)))))
(let (($x128610 (or (not ?N) (and ?I ?O (not ?P)))))
(let (($x446483 (or (not ?N) ?O)))
(let (($x233302 (not ?Q)))
(let (($x540515 (or $x233302 (and ?N ?R (<= ?S ?T) (>= ?S ?T)) (and ?I ?U ?P (<= ?S ?C) (>= ?S ?C)))))
(let (($x363903 (or $x233302 (and ?R (not ?U)) (and ?U (not ?R)))))
(let (($x363422 (or (not ?V) (and ?Q ?W ?X))))
(let (($x404382 (or (not ?V) ?W)))
(let (($x319777 (not ?Y)))
(let (($x396556 (or $x319777 (and ?V ?Z ?A1 (<= ?B1 ?A) (>= ?B1 ?A)) (and ?Q ?C1 (not ?X) (<= ?B1 1.0) (>= ?B1 1.0)))))
(let (($x850129 (or $x319777 (and ?Z (not ?C1)) (and ?C1 (not ?Z)))))
(let (($x388257 (or (not ?D1) (and ?Y ?E1 (not ?F1)))))
(let (($x373748 (or (not ?D1) ?E1)))
(let (($x26329 (>= ?K1 ?K)))
(let (($x476757 (<= ?K1 ?K)))
(let (($x488890 (and ?V ?N1 (not ?A1) (<= ?I1 0.0) (>= ?I1 0.0) (<= ?J1 0.0) (>= ?J1 0.0) $x476757 $x26329)))
(let (($x865258 (>= ?J1 ?B1)))
(let (($x690168 (<= ?J1 ?B1)))
(let (($x343538 (and ?Y ?M1 ?F1 (<= ?I1 ?B) (>= ?I1 ?B) $x690168 $x865258 $x476757 $x26329)))
(let (($x298739 (and ?D1 ?H1 (<= ?I1 ?B) (>= ?I1 ?B) $x690168 $x865258 (<= ?K1 ?L1) (>= ?K1 ?L1))))
(let (($x846438 (not ?G1)))
(let (($x192321 (or $x846438 (and ?H1 (not ?M1) (not ?N1)) (and ?M1 (not ?H1) (not ?N1)) (and ?N1 (not ?H1) (not ?M1)))))
(let (($x473361 (or (not ?O1) (and ?G1 ?P1 ?Q1))))
(let (($x310412 (or (not ?O1) ?P1)))
(let (($x281398 (or (not ?R1) (and ?O1 ?S1 (<= ?T1 ?U1) (>= ?T1 ?U1)) (and ?G1 ?V1 (not ?Q1) (<= ?T1 ?I1) (>= ?T1 ?I1)))))
(let (($x580267 (or (not ?R1) (and ?S1 (not ?V1)) (and ?V1 (not ?S1)))))
(let (($x521479 (= ?R1 true)))
(let (($x409549 (= ?W1 true)))
(let (($x892704 (= ?H (= ?X1 0.0))))
(let (($x232640 (= ?Z1 (ite ?Y1 1.0 0.0))))
(let (($x202281 (= ?P (= ?A2 0.0))))
(let (($x359926 (= ?T (ite ?B2 1.0 0.0))))
(let (($x126099 (= ?X (= ?C2 0.0))))
(let (($x919237 (= ?A1 (= ?D2 0.0))))
(let (($x201585 (= ?E2 (not (<= ?K 0.0)))))
(let (($x815146 (= ?F2 (+ (~ 1.0) ?K))))
(let (($x866521 (= ?L1 (ite ?E2 ?F2 ?K))))
(let (($x300331 (= ?G2 (not (= ?J1 0.0)))))
(let (($x368647 (= ?H2 (= ?I1 0.0))))
(let (($x545028 (= ?I2 (not (<= ?K1 1.0)))))
(let (($x212249 (= ?J2 (and ?G2 ?H2))))
(let (($x89463 (= ?Q1 (and ?J2 ?I2))))
(let (($x568670 (= ?K2 (= ?S 0.0))))
(let (($x156652 (= ?U1 (ite ?K2 1.0 ?I1))))
(let (($x625950 (= ?L2 (= ?S 0.0))))
(let (($x166180 (= ?M2 (= ?K1 2.0))))
(let (($x21731 (= ?N2 (= ?T1 0.0))))
(let (($x12842 (= ?O2 (and ?M2 ?L2))))
(let (($x754941 (|cp-rel-bb1.i.i| ?A ?B ?C ?D)))
(let (($x174006 (and $x754941 $x12842 $x21731 $x166180 $x625950 $x156652 $x568670 $x89463 $x212249 $x545028 $x368647 $x300331 $x866521 $x815146 $x201585 (= ?F1 (= ?B 0.0)) $x919237 $x126099 $x359926 (= ?B2 (= ?C 0.0)) $x202281 (= ?L (+ ?Z1 ?D)) $x232640 (= ?Y1 (not (<= 2.0 ?D))) $x892704 $x409549 $x521479 $x580267 $x281398 $x310412 $x473361 $x192321 (or $x846438 $x298739 $x343538 $x488890) $x373748 $x388257 $x850129 $x396556 $x404382 $x363422 $x363903 $x540515 $x446483 $x128610 $x256508 $x254564 $x621873 $x701088 $x250031)))
(=> $x174006 |cp-rel-bb2.i.i21.i.i|)))))))))))))))))))))))))))))))))))))))))))))))))))))))))
)
(assert (not cp-rel-bb2.i.i21.i.i))
(check-sat)
